26, 409
510, 346
178, 196
350, 328
307, 343
478, 177
194, 200
213, 430
367, 270
247, 359
370, 422
242, 451
302, 129
292, 299
479, 142
486, 201
338, 189
431, 237
352, 188
73, 285
244, 465
68, 297
76, 319
226, 373
248, 429
64, 268
269, 466